(set-info :origin "SVCOMP13 benchmarks generated by Arie Gurfinkel")
(set-info :status sat)
(set-logic HORN)
(declare-fun cp-rel-entry () Bool)
(declare-fun cp-rel-bb2.i.i26.i.i () Bool)
(declare-fun cp-rel-bb1.i.i (Real Real Real Real Real) Bool)
(assert |cp-rel-entry|)
(assert (forall ((?A Real) (?B Real) (?C Real) (?D Real) (?E Real) (?F Bool) )(let (($x546530 (and |cp-rel-entry| (<= ?E 0.0) (>= ?D 1.0) (<= ?D 1.0) (>= ?C 0.0) (<= ?C 0.0) (>= ?B 1.0) (<= ?B 1.0) (>= ?A 0.0) (<= ?A 0.0) (= ?F true) (>= ?E 0.0))))
(=> $x546530 (|cp-rel-bb1.i.i| ?A ?B ?C ?D ?E))))
)
(assert (forall ((?A Real) (?B Real) (?C Real) (?D Real) (?E Real) (?F Real) (?G Real) (?H Real) (?I Real) (?J Real) (?K Bool) (?L Bool) (?M Bool) (?N Bool) (?O Bool) (?P Bool) (?Q Real) (?R Real) (?S Bool) (?T Bool) (?U Bool) (?V Bool) (?W Bool) (?X Bool) (?Y Real) (?Z Real) (?A1 Bool) (?B1 Bool) (?C1 Bool) (?D1 Bool) (?E1 Bool) (?F1 Bool) (?G1 Bool) (?H1 Bool) (?I1 Bool) (?J1 Bool) (?K1 Bool) (?L1 Bool) (?M1 Bool) (?N1 Real) (?O1 Real) (?P1 Bool) (?Q1 Bool) (?R1 Bool) (?S1 Bool) (?T1 Bool) (?U1 Bool) (?V1 Bool) (?W1 Bool) (?X1 Bool) (?Y1 Bool) (?Z1 Bool) (?A2 Bool) (?B2 Bool) (?C2 Real) (?D2 Real) (?E2 Real) (?F2 Real) (?G2 Bool) (?H2 Bool) (?I2 Bool) (?J2 Bool) (?K2 Bool) (?L2 Bool) (?M2 Bool) (?N2 Bool) (?O2 Real) (?P2 Bool) (?Q2 Real) (?R2 Real) (?S2 Bool) (?T2 Real) (?U2 Real) (?V2 Bool) (?W2 Real) (?X2 Bool) (?Y2 Bool) (?Z2 Bool) )(let (($x428942 (|cp-rel-bb1.i.i| ?F ?G ?H ?I ?J)))
(let (($x562668 (or (not ?K) (and ?L ?M (not ?N)))))
(let (($x646406 (or (not ?K) ?M)))
(let (($x547652 (not ?O)))
(let (($x288675 (or $x547652 (and ?K ?P (<= ?Q ?R) (>= ?Q ?R)) (and ?L ?S ?N (<= ?Q ?B) (>= ?Q ?B)))))
(let (($x512756 (or $x547652 (and ?P (not ?S)) (and ?S (not ?P)))))
(let (($x852810 (or (not ?T) (and ?O ?U (not ?V)))))
(let (($x412307 (or (not ?T) ?U)))
(let (($x125160 (not ?W)))
(let (($x293481 (or $x125160 (and ?T ?X (<= ?Y ?Z) (>= ?Y ?Z)) (and ?O ?A1 ?V (<= ?Y ?A) (>= ?Y ?A)))))
(let (($x599299 (or $x125160 (and ?X (not ?A1)) (and ?A1 (not ?X)))))
(let (($x892129 (or (not ?B1) (and ?W ?C1 ?D1))))
(let (($x293572 (or (not ?B1) ?C1)))
(let (($x179837 (or (not ?E1) (and ?B1 ?F1 ?G1) (and ?W ?H1 (not ?D1)))))
(let (($x315298 (or (not ?E1) (and ?F1 (not ?H1)) (and ?H1 (not ?F1)))))
(let (($x307847 (or (not ?I1) (and ?E1 ?J1 (not ?K1)))))
(let (($x237727 (or (not ?I1) ?J1)))
(let (($x866520 (or (not ?L1) (and ?I1 ?M1 (<= ?N1 ?O1) (>= ?N1 ?O1)) (and ?E1 ?P1 ?K1 (<= ?N1 ?Q) (>= ?N1 ?Q)))))
(let (($x447365 (or (not ?L1) (and ?M1 (not ?P1)) (and ?P1 (not ?M1)))))
(let (($x847919 (or (not ?Q1) (and ?L1 ?R1 (not ?S1)))))
(let (($x797448 (or (not ?Q1) ?R1)))
(let (($x864764 (or (not ?T1) (and ?Q1 ?U1 ?K1))))
(let (($x610352 (or (not ?T1) ?U1)))
(let (($x55163 (or (not ?V1) (and ?Q1 ?W1 (not ?K1)))))
(let (($x449877 (or (not ?V1) ?W1)))
(let (($x858646 (or (not ?X1) (and ?V1 ?Y1 ?Z1))))
(let (($x196346 (or (not ?X1) ?Y1)))
(let (($x106156 (>= ?E2 0.0)))
(let (($x221869 (<= ?E2 0.0)))
(let (($x228872 (and ?B1 ?J2 (not ?G1) (<= ?C2 0.0) (>= ?C2 0.0) (<= ?D2 ?Q) (>= ?D2 ?Q) $x221869 $x106156)))
(let (($x487873 (>= ?D2 ?N1)))
(let (($x419357 (<= ?D2 ?N1)))
(let (($x88551 (>= ?C2 ?D)))
(let (($x291974 (<= ?C2 ?D)))
(let (($x298685 (and ?L1 ?I2 ?S1 $x291974 $x88551 $x419357 $x487873 (<= ?E2 ?E) (>= ?E2 ?E))))
(let (($x343056 (not ?A2)))
(let (($x324701 (or $x343056 (and ?T1 ?B2 $x291974 $x88551 $x419357 $x487873 (<= ?E2 ?F2) (>= ?E2 ?F2)) (and ?X1 ?G2 $x291974 $x88551 $x419357 $x487873 (<= ?E2 ?E) (>= ?E2 ?E)) (and ?V1 ?H2 (not ?Z1) $x291974 $x88551 $x419357 $x487873 $x221869 $x106156) $x298685 $x228872)))
(let (($x851349 (or $x343056 (and ?B2 (not ?G2) (not ?H2) (not ?I2) (not ?J2)) (and ?G2 (not ?B2) (not ?H2) (not ?I2) (not ?J2)) (and ?H2 (not ?B2) (not ?G2) (not ?I2) (not ?J2)) (and ?I2 (not ?B2) (not ?G2) (not ?H2) (not ?J2)) (and ?J2 (not ?B2) (not ?G2) (not ?H2) (not ?I2)))))
(let (($x506827 (or (not ?K2) (and ?A2 ?L2 (not ?M2)))))
(let (($x545668 (or (not ?K2) ?L2)))
(let (($x211495 (and ?A2 ?M2 (<= ?F ?Y) (>= ?F ?Y) (<= ?G ?D2) (>= ?G ?D2) (<= ?H 0.0) (>= ?H 0.0) (<= ?I ?C2) (>= ?I ?C2) (<= ?J ?E2) (>= ?J ?E2))))
(let (($x197485 (and ?K2 ?N2 (<= ?F ?Y) (>= ?F ?Y) (<= ?G ?D2) (>= ?G ?D2) (<= ?H 1.0) (>= ?H 1.0) (<= ?I ?C2) (>= ?I ?C2) (<= ?J ?E2) (>= ?J ?E2))))
(let (($x861649 (= ?N (= ?O2 0.0))))
(let (($x376271 (= ?Q2 (ite ?P2 1.0 0.0))))
(let (($x342538 (= ?V (= ?R2 0.0))))
(let (($x326156 (= ?Z (ite ?S2 1.0 0.0))))
(let (($x927574 (= ?D1 (= ?T2 0.0))))
(let (($x900995 (= ?G1 (= ?U2 0.0))))
(let (($x782836 (= ?V2 (not (<= ?Q 0.0)))))
(let (($x277876 (= ?W2 (+ (~ 1.0) ?Q))))
(let (($x397008 (= ?O1 (ite ?V2 ?W2 ?Q))))
(let (($x164458 (= ?X2 (not (<= ?N1 1.0)))))
(let (($x437766 (= ?Z1 (= ?N1 0.0))))
(let (($x476309 (= ?Y2 (= ?Y 0.0))))
(let (($x305200 (= ?Z2 (= ?E2 0.0))))
(let (($x21437 (= ?M2 (or ?Z2 ?Y2))))
(let (($x232648 (and (|cp-rel-bb1.i.i| ?A ?B ?C ?D ?E) $x21437 $x305200 $x476309 $x437766 (= ?F2 (ite ?X2 1.0 ?E)) $x164458 (= ?S1 (= ?D 0.0)) $x397008 $x277876 $x782836 (= ?K1 (= ?E 0.0)) $x900995 $x927574 $x326156 (= ?S2 (= ?A 0.0)) $x342538 (= ?R (+ ?Q2 ?B)) $x376271 (= ?P2 (not (<= 2.0 ?B))) $x861649 (or $x197485 $x211495) $x545668 $x506827 $x851349 $x324701 $x196346 $x858646 $x449877 $x55163 $x610352 $x864764 $x797448 $x847919 $x447365 $x866520 $x237727 $x307847 $x315298 $x179837 $x293572 $x892129 $x599299 $x293481 $x412307 $x852810 $x512756 $x288675 $x646406 $x562668 (= ?N2 (= ?C 0.0)))))
(=> $x232648 $x428942)))))))))))))))))))))))))))))))))))))))))))))))))))))))))))
)
(assert (forall ((?A Real) (?B Real) (?C Real) (?D Real) (?E Real) (?F Bool) (?G Bool) (?H Bool) (?I Bool) (?J Bool) (?K Bool) (?L Real) (?M Real) (?N Bool) (?O Bool) (?P Bool) (?Q Bool) (?R Bool) (?S Bool) (?T Real) (?U Real) (?V Bool) (?W Bool) (?X Bool) (?Y Bool) (?Z Bool) (?A1 Bool) (?B1 Bool) (?C1 Bool) (?D1 Bool) (?E1 Bool) (?F1 Bool) (?G1 Bool) (?H1 Bool) (?I1 Real) (?J1 Real) (?K1 Bool) (?L1 Bool) (?M1 Bool) (?N1 Bool) (?O1 Bool) (?P1 Bool) (?Q1 Bool) (?R1 Bool) (?S1 Bool) (?T1 Bool) (?U1 Bool) (?V1 Bool) (?W1 Bool) (?X1 Real) (?Y1 Real) (?Z1 Real) (?A2 Real) (?B2 Bool) (?C2 Bool) (?D2 Bool) (?E2 Bool) (?F2 Bool) (?G2 Bool) (?H2 Bool) (?I2 Bool) (?J2 Real) (?K2 Bool) (?L2 Real) (?M2 Real) (?N2 Bool) (?O2 Real) (?P2 Real) (?Q2 Bool) (?R2 Real) (?S2 Bool) (?T2 Bool) (?U2 Bool) )(let (($x562668 (or (not ?F) (and ?G ?H (not ?I)))))
(let (($x646406 (or (not ?F) ?H)))
(let (($x547652 (not ?J)))
(let (($x866229 (or $x547652 (and ?F ?K (<= ?L ?M) (>= ?L ?M)) (and ?G ?N ?I (<= ?L ?B) (>= ?L ?B)))))
(let (($x512756 (or $x547652 (and ?K (not ?N)) (and ?N (not ?K)))))
(let (($x852810 (or (not ?O) (and ?J ?P (not ?Q)))))
(let (($x412307 (or (not ?O) ?P)))
(let (($x125160 (not ?R)))
(let (($x327920 (or $x125160 (and ?O ?S (<= ?T ?U) (>= ?T ?U)) (and ?J ?V ?Q (<= ?T ?A) (>= ?T ?A)))))
(let (($x599299 (or $x125160 (and ?S (not ?V)) (and ?V (not ?S)))))
(let (($x892129 (or (not ?W) (and ?R ?X ?Y))))
(let (($x293572 (or (not ?W) ?X)))
(let (($x179837 (or (not ?Z) (and ?W ?A1 ?B1) (and ?R ?C1 (not ?Y)))))
(let (($x315298 (or (not ?Z) (and ?A1 (not ?C1)) (and ?C1 (not ?A1)))))
(let (($x307847 (or (not ?D1) (and ?Z ?E1 (not ?F1)))))
(let (($x237727 (or (not ?D1) ?E1)))
(let (($x866520 (or (not ?G1) (and ?D1 ?H1 (<= ?I1 ?J1) (>= ?I1 ?J1)) (and ?Z ?K1 ?F1 (<= ?I1 ?L) (>= ?I1 ?L)))))
(let (($x447365 (or (not ?G1) (and ?H1 (not ?K1)) (and ?K1 (not ?H1)))))
(let (($x847919 (or (not ?L1) (and ?G1 ?M1 (not ?N1)))))
(let (($x797448 (or (not ?L1) ?M1)))
(let (($x864764 (or (not ?O1) (and ?L1 ?P1 ?F1))))
(let (($x610352 (or (not ?O1) ?P1)))
(let (($x55163 (or (not ?Q1) (and ?L1 ?R1 (not ?F1)))))
(let (($x449877 (or (not ?Q1) ?R1)))
(let (($x858646 (or (not ?S1) (and ?Q1 ?T1 ?U1))))
(let (($x196346 (or (not ?S1) ?T1)))
(let (($x106156 (>= ?Z1 0.0)))
(let (($x221869 (<= ?Z1 0.0)))
(let (($x228872 (and ?W ?E2 (not ?B1) (<= ?X1 0.0) (>= ?X1 0.0) (<= ?Y1 ?L) (>= ?Y1 ?L) $x221869 $x106156)))
(let (($x487873 (>= ?Y1 ?I1)))
(let (($x419357 (<= ?Y1 ?I1)))
(let (($x205253 (>= ?X1 ?D)))
(let (($x848181 (<= ?X1 ?D)))
(let (($x260088 (and ?G1 ?D2 ?N1 $x848181 $x205253 $x419357 $x487873 (<= ?Z1 ?E) (>= ?Z1 ?E))))
(let (($x343056 (not ?V1)))
(let (($x326013 (or $x343056 (and ?O1 ?W1 $x848181 $x205253 $x419357 $x487873 (<= ?Z1 ?A2) (>= ?Z1 ?A2)) (and ?S1 ?B2 $x848181 $x205253 $x419357 $x487873 (<= ?Z1 ?E) (>= ?Z1 ?E)) (and ?Q1 ?C2 (not ?U1) $x848181 $x205253 $x419357 $x487873 $x221869 $x106156) $x260088 $x228872)))
(let (($x851349 (or $x343056 (and ?W1 (not ?B2) (not ?C2) (not ?D2) (not ?E2)) (and ?B2 (not ?W1) (not ?C2) (not ?D2) (not ?E2)) (and ?C2 (not ?W1) (not ?B2) (not ?D2) (not ?E2)) (and ?D2 (not ?W1) (not ?B2) (not ?C2) (not ?E2)) (and ?E2 (not ?W1) (not ?B2) (not ?C2) (not ?D2)))))
(let (($x506827 (or (not ?F2) (and ?V1 ?G2 (not ?H2)))))
(let (($x545668 (or (not ?F2) ?G2)))
(let (($x861649 (= ?I (= ?J2 0.0))))
(let (($x376271 (= ?L2 (ite ?K2 1.0 0.0))))
(let (($x342538 (= ?Q (= ?M2 0.0))))
(let (($x326156 (= ?U (ite ?N2 1.0 0.0))))
(let (($x927574 (= ?Y (= ?O2 0.0))))
(let (($x900995 (= ?B1 (= ?P2 0.0))))
(let (($x782836 (= ?Q2 (not (<= ?L 0.0)))))
(let (($x277876 (= ?R2 (+ (~ 1.0) ?L))))
(let (($x397008 (= ?J1 (ite ?Q2 ?R2 ?L))))
(let (($x164458 (= ?S2 (not (<= ?I1 1.0)))))
(let (($x437766 (= ?U1 (= ?I1 0.0))))
(let (($x476309 (= ?T2 (= ?T 0.0))))
(let (($x305200 (= ?U2 (= ?Z1 0.0))))
(let (($x21437 (= ?H2 (or ?U2 ?T2))))
(let (($x428942 (|cp-rel-bb1.i.i| ?A ?B ?C ?D ?E)))
(let (($x3733 (and $x428942 $x21437 $x305200 $x476309 $x437766 (= ?A2 (ite ?S2 1.0 ?E)) $x164458 (= ?N1 (= ?D 0.0)) $x397008 $x277876 $x782836 (= ?F1 (= ?E 0.0)) $x900995 $x927574 $x326156 (= ?N2 (= ?A 0.0)) $x342538 (= ?M (+ ?L2 ?B)) $x376271 (= ?K2 (not (<= 2.0 ?B))) $x861649 (not (= ?I2 true)) (= ?F2 true) $x545668 $x506827 $x851349 $x326013 $x196346 $x858646 $x449877 $x55163 $x610352 $x864764 $x797448 $x847919 $x447365 $x866520 $x237727 $x307847 $x315298 $x179837 $x293572 $x892129 $x599299 $x327920 $x412307 $x852810 $x512756 $x866229 $x646406 $x562668 (= ?I2 (= ?C 0.0)))))
(=> $x3733 |cp-rel-bb2.i.i26.i.i|)))))))))))))))))))))))))))))))))))))))))))))))))))))))))
)
(assert (not cp-rel-bb2.i.i26.i.i))
(check-sat)
